c Random generated cnf formula, satisfiable: true
p cnf 10 50
7 -8 10 0
10 3 9 0
10 -6 9 0
3 -7 -9 0
-1 10 3 0
-3 -2 9 0
-2 -7 9 0
1 -3 4 0
-6 7 -9 0
-4 1 8 0
7 -6 -3 0
-2 10 -4 0
2 -1 -8 0
10 2 4 0
2 4 -7 0
7 9 -3 0
-1 9 -2 0
8 5 3 0
3 7 -1 0
8 -1 -2 0
7 8 -5 0
-7 6 8 0
7 -1 9 0
1 2 3 0
-1 -8 4 0
7 -9 -3 0
7 9 -3 0
-2 10 -4 0
-1 6 5 0
5 -8 7 0
10 4 3 0
-1 5 -8 0
-3 -2 8 0
9 -4 2 0
-5 -7 -6 0
1 -6 8 0
-3 -4 -5 0
1 2 9 0
9 1 -2 0
8 -4 -6 0
-4 -1 -3 0
4 3 8 0
-6 -4 -3 0
-2 -10 8 0
7 2 1 0
8 4 6 0
5 3 8 0
4 -7 10 0
4 5 3 0
-4 6 -5 0
